c Reduced graph for p33_0 generated by Cyril Grelier
p edge 56 258
e 1 2
e 1 3
e 1 4
e 1 5
e 1 6
e 1 24
e 1 25
e 1 26
e 1 27
e 1 40
e 1 43
e 1 46
e 2 3
e 2 7
e 2 8
e 2 9
e 2 10
e 2 27
e 2 28
e 2 29
e 2 40
e 2 43
e 2 46
e 3 18
e 3 19
e 3 27
e 3 35
e 3 36
e 3 37
e 3 40
e 3 43
e 3 46
e 4 5
e 4 6
e 4 7
e 4 11
e 4 14
e 4 20
e 4 24
e 4 25
e 4 26
e 4 41
e 5 6
e 5 9
e 5 12
e 5 16
e 5 22
e 5 24
e 5 25
e 5 26
e 5 51
e 6 10
e 6 13
e 6 17
e 6 19
e 6 23
e 6 24
e 6 25
e 6 26
e 7 8
e 7 9
e 7 10
e 7 11
e 7 14
e 7 20
e 7 28
e 7 29
e 7 41
e 8 9
e 8 10
e 8 15
e 8 18
e 8 21
e 8 28
e 8 29
e 8 42
e 8 50
e 9 10
e 9 12
e 9 16
e 9 22
e 9 28
e 9 29
e 9 51
e 10 13
e 10 17
e 10 19
e 10 23
e 10 28
e 10 29
e 11 12
e 11 13
e 11 14
e 11 20
e 11 30
e 11 31
e 11 32
e 11 41
e 12 13
e 12 16
e 12 22
e 12 30
e 12 31
e 12 32
e 12 51
e 13 17
e 13 19
e 13 23
e 13 30
e 13 31
e 13 32
e 14 15
e 14 16
e 14 17
e 14 20
e 14 33
e 14 34
e 14 41
e 15 16
e 15 17
e 15 18
e 15 21
e 15 33
e 15 34
e 15 42
e 15 50
e 16 17
e 16 22
e 16 33
e 16 34
e 16 51
e 17 19
e 17 23
e 17 33
e 17 34
e 18 19
e 18 21
e 18 35
e 18 36
e 18 37
e 18 42
e 18 50
e 19 23
e 19 35
e 19 36
e 19 37
e 20 21
e 20 22
e 20 23
e 20 38
e 20 39
e 20 41
e 21 22
e 21 23
e 21 38
e 21 39
e 21 42
e 21 50
e 22 23
e 22 38
e 22 39
e 22 51
e 23 38
e 23 39
e 24 25
e 24 26
e 24 38
e 24 44
e 24 48
e 24 52
e 25 26
e 25 32
e 25 39
e 25 49
e 25 54
e 26 29
e 26 37
e 26 53
e 26 55
e 27 40
e 27 41
e 27 42
e 27 43
e 27 44
e 27 45
e 27 46
e 28 29
e 28 31
e 28 34
e 28 36
e 28 45
e 29 37
e 29 53
e 29 55
e 30 31
e 30 32
e 30 33
e 30 35
e 30 47
e 30 56
e 31 32
e 31 34
e 31 36
e 31 45
e 32 39
e 32 49
e 32 54
e 33 34
e 33 35
e 33 47
e 33 56
e 34 36
e 34 45
e 35 36
e 35 37
e 35 47
e 35 56
e 36 37
e 36 45
e 37 53
e 37 55
e 38 39
e 38 44
e 38 48
e 38 52
e 39 49
e 39 54
e 40 43
e 40 46
e 40 47
e 40 48
e 40 49
e 41 42
e 41 44
e 41 45
e 42 44
e 42 45
e 42 50
e 43 46
e 43 52
e 43 53
e 44 45
e 44 48
e 44 52
e 46 54
e 46 55
e 47 48
e 47 49
e 47 56
e 48 49
e 48 52
e 49 54
e 50 51
e 50 56
e 51 56
e 52 53
e 53 55
e 54 55
